c nombre: 44
c densidad: 0.5
p edges 40 414
e 1 3
e 1 4
e 1 5
e 1 6
e 1 7
e 1 9
e 1 12
e 1 13
e 1 14
e 1 15
e 1 18
e 1 21
e 1 22
e 1 24
e 1 28
e 1 29
e 1 34
e 1 35
e 1 37
e 1 38
e 1 39
e 2 4
e 2 6
e 2 8
e 2 9
e 2 12
e 2 13
e 2 15
e 2 17
e 2 18
e 2 24
e 2 26
e 2 30
e 2 31
e 2 32
e 2 34
e 2 35
e 2 37
e 2 40
e 3 4
e 3 5
e 3 6
e 3 7
e 3 8
e 3 10
e 3 12
e 3 17
e 3 18
e 3 20
e 3 22
e 3 25
e 3 29
e 3 30
e 3 33
e 3 34
e 3 35
e 3 38
e 3 40
e 4 7
e 4 9
e 4 10
e 4 12
e 4 13
e 4 14
e 4 15
e 4 18
e 4 19
e 4 20
e 4 22
e 4 24
e 4 25
e 4 26
e 4 28
e 4 29
e 4 31
e 4 32
e 4 33
e 4 34
e 4 35
e 4 36
e 5 7
e 5 10
e 5 11
e 5 13
e 5 14
e 5 15
e 5 16
e 5 17
e 5 18
e 5 20
e 5 21
e 5 22
e 5 23
e 5 26
e 5 29
e 5 30
e 5 31
e 5 32
e 5 34
e 5 35
e 5 36
e 5 37
e 5 38
e 5 39
e 6 11
e 6 13
e 6 14
e 6 16
e 6 18
e 6 19
e 6 20
e 6 21
e 6 22
e 6 23
e 6 24
e 6 25
e 6 26
e 6 27
e 6 28
e 6 30
e 6 33
e 6 35
e 6 40
e 7 10
e 7 13
e 7 14
e 7 16
e 7 22
e 7 24
e 7 25
e 7 26
e 7 27
e 7 28
e 7 30
e 7 32
e 7 33
e 7 35
e 7 37
e 7 38
e 8 9
e 8 12
e 8 16
e 8 24
e 8 25
e 8 26
e 8 28
e 8 29
e 8 30
e 8 32
e 8 33
e 8 35
e 8 39
e 8 40
e 9 10
e 9 11
e 9 12
e 9 13
e 9 15
e 9 16
e 9 19
e 9 20
e 9 21
e 9 23
e 9 24
e 9 25
e 9 26
e 9 27
e 9 28
e 9 30
e 9 34
e 9 35
e 9 36
e 9 37
e 9 38
e 9 40
e 10 16
e 10 18
e 10 21
e 10 22
e 10 24
e 10 29
e 10 30
e 10 31
e 10 32
e 10 33
e 10 35
e 10 36
e 10 37
e 10 39
e 11 12
e 11 14
e 11 15
e 11 17
e 11 18
e 11 19
e 11 20
e 11 21
e 11 27
e 11 30
e 11 35
e 11 37
e 11 38
e 12 14
e 12 15
e 12 18
e 12 19
e 12 21
e 12 26
e 12 27
e 12 28
e 12 29
e 12 33
e 12 37
e 12 39
e 13 14
e 13 17
e 13 18
e 13 20
e 13 24
e 13 25
e 13 26
e 13 29
e 13 30
e 13 31
e 13 36
e 13 38
e 13 39
e 14 16
e 14 18
e 14 24
e 14 25
e 14 26
e 14 27
e 14 28
e 14 30
e 14 32
e 14 33
e 14 36
e 14 37
e 14 38
e 14 39
e 15 17
e 15 18
e 15 22
e 15 24
e 15 29
e 15 30
e 15 35
e 15 37
e 15 39
e 15 40
e 16 19
e 16 21
e 16 22
e 16 24
e 16 25
e 16 26
e 16 27
e 16 28
e 16 31
e 16 32
e 16 33
e 16 34
e 16 35
e 16 37
e 17 19
e 17 21
e 17 22
e 17 23
e 17 26
e 17 28
e 17 29
e 17 30
e 17 34
e 17 37
e 17 39
e 17 40
e 18 19
e 18 20
e 18 21
e 18 22
e 18 24
e 18 26
e 18 27
e 18 28
e 18 29
e 18 31
e 18 33
e 18 36
e 18 37
e 18 39
e 18 40
e 19 20
e 19 21
e 19 23
e 19 28
e 19 29
e 19 30
e 19 32
e 19 35
e 19 37
e 19 38
e 19 39
e 20 21
e 20 23
e 20 24
e 20 26
e 20 27
e 20 28
e 20 30
e 20 33
e 20 35
e 20 38
e 20 40
e 21 22
e 21 23
e 21 24
e 21 26
e 21 27
e 21 31
e 21 32
e 21 37
e 21 39
e 22 23
e 22 29
e 22 30
e 22 33
e 22 40
e 23 24
e 23 25
e 23 26
e 23 27
e 23 30
e 23 31
e 23 34
e 23 37
e 23 39
e 23 40
e 24 25
e 24 28
e 24 29
e 24 30
e 24 33
e 24 34
e 24 37
e 24 38
e 24 39
e 24 40
e 25 26
e 25 27
e 25 28
e 25 29
e 25 32
e 25 35
e 25 36
e 25 37
e 25 40
e 26 28
e 26 29
e 26 30
e 26 32
e 26 35
e 26 36
e 26 39
e 26 40
e 27 29
e 27 31
e 27 34
e 27 35
e 27 36
e 27 39
e 27 40
e 28 32
e 28 33
e 28 34
e 28 35
e 28 37
e 29 37
e 29 38
e 30 31
e 30 32
e 30 33
e 30 34
e 30 35
e 30 36
e 30 38
e 30 39
e 30 40
e 31 32
e 31 33
e 31 35
e 31 37
e 31 39
e 32 34
e 32 36
e 32 37
e 32 38
e 32 39
e 33 34
e 33 37
e 33 40
e 34 35
e 34 37
e 34 39
e 34 40
e 35 36
e 35 37
e 36 37
e 36 38
e 36 39
e 37 38
e 37 40
e 38 40
e 39 40
